p cnf 200 1110
-101 -59 0
-101 22 0
-101 57 0
-101 -4 0
-101 -99 0
-101 -52 0
-101 -11 0
-101 37 0
-101 26 0
-101 14 0
101 59 -22 -57 4 99 52 11 -37 -26 -14 0
-102 86 0
-102 80 0
-102 6 0
-102 -9 0
-102 -67 0
-102 59 0
-102 3 0
-102 39 0
-102 96 0
-102 -50 0
102 -86 -80 -6 9 67 -59 -3 -39 -96 50 0
-103 20 0
-103 14 0
-103 100 0
-103 78 0
-103 -36 0
-103 -71 0
-103 25 0
-103 -90 0
-103 98 0
-103 -15 0
103 -20 -14 -100 -78 36 71 -25 90 -98 15 0
-104 -84 0
-104 33 0
-104 -24 0
-104 -77 0
-104 -88 0
-104 -94 0
-104 63 0
-104 70 0
-104 -15 0
-104 -78 0
104 84 -33 24 77 88 94 -63 -70 15 78 0
-105 -17 0
-105 -51 0
-105 -66 0
-105 -9 0
-105 -92 0
-105 -10 0
-105 25 0
-105 40 0
-105 38 0
-105 -45 0
105 17 51 66 9 92 10 -25 -40 -38 45 0
-106 60 0
-106 -24 0
-106 -39 0
-106 -29 0
-106 3 0
-106 9 0
-106 92 0
-106 -67 0
-106 63 0
-106 23 0
106 -60 24 39 29 -3 -9 -92 67 -63 -23 0
-107 22 0
-107 30 0
-107 -54 0
-107 -85 0
-107 67 0
-107 42 0
-107 -98 0
-107 -100 0
-107 -32 0
-107 -46 0
107 -22 -30 54 85 -67 -42 98 100 32 46 0
-108 93 0
-108 87 0
-108 77 0
-108 39 0
-108 -2 0
-108 42 0
-108 88 0
-108 70 0
-108 74 0
-108 58 0
108 -93 -87 -77 -39 2 -42 -88 -70 -74 -58 0
-109 -41 0
-109 -17 0
-109 -36 0
-109 -46 0
-109 94 0
-109 -62 0
-109 -5 0
-109 -24 0
-109 -4 0
-109 14 0
109 41 17 36 46 -94 62 5 24 4 -14 0
-110 -52 0
-110 -93 0
-110 76 0
-110 86 0
-110 -87 0
-110 72 0
-110 71 0
-110 42 0
-110 -11 0
-110 70 0
110 52 93 -76 -86 87 -72 -71 -42 11 -70 0
101 102 103 104 105 106 107 108 109 110 0
-111 51 0
-111 18 0
-111 22 0
-111 -79 0
-111 90 0
-111 65 0
-111 -29 0
-111 -92 0
-111 93 0
-111 33 0
111 -51 -18 -22 79 -90 -65 29 92 -93 -33 0
-112 -54 0
-112 31 0
-112 -19 0
-112 -42 0
-112 57 0
-112 95 0
-112 -99 0
-112 -38 0
-112 -90 0
-112 88 0
112 54 -31 19 42 -57 -95 99 38 90 -88 0
-113 -21 0
-113 75 0
-113 93 0
-113 -32 0
-113 -94 0
-113 2 0
-113 22 0
-113 -96 0
-113 16 0
-113 53 0
113 21 -75 -93 32 94 -2 -22 96 -16 -53 0
-114 58 0
-114 93 0
-114 -28 0
-114 9 0
-114 -60 0
-114 -76 0
-114 -17 0
-114 5 0
-114 20 0
-114 56 0
114 -58 -93 28 -9 60 76 17 -5 -20 -56 0
-115 -7 0
-115 -4 0
-115 -59 0
-115 -39 0
-115 10 0
-115 6 0
-115 -84 0
-115 21 0
-115 -42 0
-115 -27 0
115 7 4 59 39 -10 -6 84 -21 42 27 0
-116 52 0
-116 23 0
-116 -61 0
-116 18 0
-116 98 0
-116 -17 0
-116 80 0
-116 2 0
-116 35 0
-116 -83 0
116 -52 -23 61 -18 -98 17 -80 -2 -35 83 0
-117 -7 0
-117 -28 0
-117 31 0
-117 99 0
-117 5 0
-117 -39 0
-117 -25 0
-117 -65 0
-117 78 0
-117 54 0
117 7 28 -31 -99 -5 39 25 65 -78 -54 0
-118 -99 0
-118 1 0
-118 71 0
-118 45 0
-118 23 0
-118 -4 0
-118 -57 0
-118 68 0
-118 -22 0
-118 -47 0
118 99 -1 -71 -45 -23 4 57 -68 22 47 0
-119 -6 0
-119 -30 0
-119 48 0
-119 -38 0
-119 -10 0
-119 66 0
-119 -98 0
-119 25 0
-119 78 0
-119 -97 0
119 6 30 -48 38 10 -66 98 -25 -78 97 0
-120 26 0
-120 -54 0
-120 20 0
-120 -17 0
-120 62 0
-120 77 0
-120 -56 0
-120 31 0
-120 29 0
-120 18 0
120 -26 54 -20 17 -62 -77 56 -31 -29 -18 0
111 112 113 114 115 116 117 118 119 120 0
-121 -55 0
-121 28 0
-121 -65 0
-121 38 0
-121 -16 0
-121 3 0
-121 49 0
-121 2 0
-121 -74 0
-121 -53 0
121 55 -28 65 -38 16 -3 -49 -2 74 53 0
-122 -79 0
-122 37 0
-122 55 0
-122 -3 0
-122 -91 0
-122 26 0
-122 -67 0
-122 31 0
-122 -14 0
-122 -15 0
122 79 -37 -55 3 91 -26 67 -31 14 15 0
-123 -61 0
-123 90 0
-123 84 0
-123 -4 0
-123 -60 0
-123 22 0
-123 57 0
-123 3 0
-123 75 0
-123 87 0
123 61 -90 -84 4 60 -22 -57 -3 -75 -87 0
-124 -44 0
-124 -98 0
-124 -1 0
-124 -6 0
-124 -10 0
-124 -59 0
-124 -81 0
-124 8 0
-124 99 0
-124 3 0
124 44 98 1 6 10 59 81 -8 -99 -3 0
-125 14 0
-125 -51 0
-125 -62 0
-125 -78 0
-125 23 0
-125 -85 0
-125 69 0
-125 -84 0
-125 -47 0
-125 94 0
125 -14 51 62 78 -23 85 -69 84 47 -94 0
-126 23 0
-126 30 0
-126 -14 0
-126 38 0
-126 -12 0
-126 -21 0
-126 18 0
-126 -4 0
-126 -24 0
-126 -46 0
126 -23 -30 14 -38 12 21 -18 4 24 46 0
-127 -95 0
-127 -100 0
-127 32 0
-127 24 0
-127 -11 0
-127 77 0
-127 -38 0
-127 28 0
-127 46 0
-127 -91 0
127 95 100 -32 -24 11 -77 38 -28 -46 91 0
-128 24 0
-128 -52 0
-128 -91 0
-128 -26 0
-128 -13 0
-128 39 0
-128 56 0
-128 -81 0
-128 31 0
-128 82 0
128 -24 52 91 26 13 -39 -56 81 -31 -82 0
-129 -61 0
-129 75 0
-129 -55 0
-129 -57 0
-129 25 0
-129 84 0
-129 31 0
-129 -58 0
-129 54 0
-129 -49 0
129 61 -75 55 57 -25 -84 -31 58 -54 49 0
-130 -31 0
-130 41 0
-130 -5 0
-130 -47 0
-130 30 0
-130 22 0
-130 63 0
-130 -35 0
-130 -69 0
-130 -94 0
130 31 -41 5 47 -30 -22 -63 35 69 94 0
121 122 123 124 125 126 127 128 129 130 0
-131 -57 0
-131 8 0
-131 -44 0
-131 60 0
-131 10 0
-131 64 0
-131 77 0
-131 -53 0
-131 -28 0
-131 56 0
131 57 -8 44 -60 -10 -64 -77 53 28 -56 0
-132 9 0
-132 92 0
-132 -65 0
-132 55 0
-132 -85 0
-132 58 0
-132 1 0
-132 -46 0
-132 -36 0
-132 66 0
132 -9 -92 65 -55 85 -58 -1 46 36 -66 0
-133 -83 0
-133 45 0
-133 30 0
-133 -39 0
-133 97 0
-133 -93 0
-133 32 0
-133 90 0
-133 -19 0
-133 96 0
133 83 -45 -30 39 -97 93 -32 -90 19 -96 0
-134 -85 0
-134 63 0
-134 80 0
-134 15 0
-134 -95 0
-134 5 0
-134 -30 0
-134 -48 0
-134 71 0
-134 21 0
134 85 -63 -80 -15 95 -5 30 48 -71 -21 0
-135 -42 0
-135 95 0
-135 -76 0
-135 2 0
-135 25 0
-135 -37 0
-135 -84 0
-135 63 0
-135 -48 0
-135 -7 0
135 42 -95 76 -2 -25 37 84 -63 48 7 0
-136 44 0
-136 55 0
-136 -41 0
-136 -99 0
-136 64 0
-136 -16 0
-136 15 0
-136 19 0
-136 12 0
-136 -100 0
136 -44 -55 41 99 -64 16 -15 -19 -12 100 0
-137 -29 0
-137 32 0
-137 44 0
-137 46 0
-137 -71 0
-137 -47 0
-137 -57 0
-137 42 0
-137 43 0
-137 -91 0
137 29 -32 -44 -46 71 47 57 -42 -43 91 0
-138 -21 0
-138 32 0
-138 9 0
-138 28 0
-138 -94 0
-138 12 0
-138 -54 0
-138 33 0
-138 14 0
-138 57 0
138 21 -32 -9 -28 94 -12 54 -33 -14 -57 0
-139 36 0
-139 55 0
-139 68 0
-139 56 0
-139 -4 0
-139 -39 0
-139 -65 0
-139 -1 0
-139 66 0
-139 83 0
139 -36 -55 -68 -56 4 39 65 1 -66 -83 0
-140 24 0
-140 90 0
-140 -33 0
-140 53 0
-140 -58 0
-140 22 0
-140 28 0
-140 -34 0
-140 -6 0
-140 -31 0
140 -24 -90 33 -53 58 -22 -28 34 6 31 0
131 132 133 134 135 136 137 138 139 140 0
-141 -58 0
-141 -2 0
-141 22 0
-141 43 0
-141 38 0
-141 59 0
-141 -9 0
-141 39 0
-141 -20 0
-141 25 0
141 58 2 -22 -43 -38 -59 9 -39 20 -25 0
-142 -30 0
-142 -70 0
-142 -90 0
-142 89 0
-142 25 0
-142 -33 0
-142 -71 0
-142 21 0
-142 83 0
-142 -29 0
142 30 70 90 -89 -25 33 71 -21 -83 29 0
-143 55 0
-143 -38 0
-143 39 0
-143 95 0
-143 53 0
-143 -99 0
-143 -78 0
-143 -19 0
-143 75 0
-143 51 0
143 -55 38 -39 -95 -53 99 78 19 -75 -51 0
-144 -46 0
-144 49 0
-144 61 0
-144 62 0
-144 -78 0
-144 -94 0
-144 -30 0
-144 41 0
-144 -23 0
-144 -35 0
144 46 -49 -61 -62 78 94 30 -41 23 35 0
-145 21 0
-145 60 0
-145 -84 0
-145 -27 0
-145 44 0
-145 -90 0
-145 31 0
-145 -49 0
-145 -36 0
-145 -53 0
145 -21 -60 84 27 -44 90 -31 49 36 53 0
-146 -97 0
-146 40 0
-146 -6 0
-146 37 0
-146 13 0
-146 -65 0
-146 -99 0
-146 89 0
-146 -29 0
-146 -32 0
146 97 -40 6 -37 -13 65 99 -89 29 32 0
-147 68 0
-147 -10 0
-147 95 0
-147 -47 0
-147 -18 0
-147 69 0
-147 61 0
-147 -77 0
-147 7 0
-147 -20 0
147 -68 10 -95 47 18 -69 -61 77 -7 20 0
-148 73 0
-148 -19 0
-148 -91 0
-148 -50 0
-148 -13 0
-148 -85 0
-148 -4 0
-148 62 0
-148 -51 0
-148 37 0
148 -73 19 91 50 13 85 4 -62 51 -37 0
-149 -85 0
-149 99 0
-149 -65 0
-149 -51 0
-149 14 0
-149 22 0
-149 -90 0
-149 -95 0
-149 21 0
-149 86 0
149 85 -99 65 51 -14 -22 90 95 -21 -86 0
-150 -31 0
-150 -46 0
-150 -10 0
-150 34 0
-150 -83 0
-150 -89 0
-150 92 0
-150 26 0
-150 -23 0
-150 19 0
150 31 46 10 -34 83 89 -92 -26 23 -19 0
141 142 143 144 145 146 147 148 149 150 0
-151 -32 0
-151 72 0
-151 -66 0
-151 43 0
-151 -7 0
-151 33 0
-151 -90 0
-151 85 0
-151 -57 0
-151 -91 0
151 32 -72 66 -43 7 -33 90 -85 57 91 0
-152 70 0
-152 -94 0
-152 -77 0
-152 84 0
-152 72 0
-152 -9 0
-152 -14 0
-152 -96 0
-152 -90 0
-152 -49 0
152 -70 94 77 -84 -72 9 14 96 90 49 0
-153 11 0
-153 90 0
-153 29 0
-153 -17 0
-153 99 0
-153 -14 0
-153 80 0
-153 95 0
-153 -6 0
-153 48 0
153 -11 -90 -29 17 -99 14 -80 -95 6 -48 0
-154 -13 0
-154 -37 0
-154 73 0
-154 39 0
-154 51 0
-154 -95 0
-154 85 0
-154 18 0
-154 50 0
-154 -98 0
154 13 37 -73 -39 -51 95 -85 -18 -50 98 0
-155 -64 0
-155 -62 0
-155 94 0
-155 -9 0
-155 74 0
-155 -1 0
-155 56 0
-155 16 0
-155 -29 0
-155 -72 0
155 64 62 -94 9 -74 1 -56 -16 29 72 0
-156 94 0
-156 59 0
-156 -33 0
-156 -10 0
-156 -39 0
-156 47 0
-156 97 0
-156 62 0
-156 88 0
-156 -68 0
156 -94 -59 33 10 39 -47 -97 -62 -88 68 0
-157 -91 0
-157 28 0
-157 67 0
-157 -24 0
-157 -79 0
-157 -32 0
-157 99 0
-157 54 0
-157 72 0
-157 25 0
157 91 -28 -67 24 79 32 -99 -54 -72 -25 0
-158 -86 0
-158 91 0
-158 44 0
-158 7 0
-158 -81 0
-158 1 0
-158 56 0
-158 -33 0
-158 -15 0
-158 18 0
158 86 -91 -44 -7 81 -1 -56 33 15 -18 0
-159 -30 0
-159 63 0
-159 -10 0
-159 93 0
-159 25 0
-159 -48 0
-159 -68 0
-159 -88 0
-159 31 0
-159 -24 0
159 30 -63 10 -93 -25 48 68 88 -31 24 0
-160 94 0
-160 -18 0
-160 -78 0
-160 -51 0
-160 -56 0
-160 90 0
-160 -14 0
-160 52 0
-160 75 0
-160 -46 0
160 -94 18 78 51 56 -90 14 -52 -75 46 0
151 152 153 154 155 156 157 158 159 160 0
-161 -51 0
-161 -87 0
-161 89 0
-161 -39 0
-161 -75 0
-161 19 0
-161 12 0
-161 -71 0
-161 -93 0
-161 54 0
161 51 87 -89 39 75 -19 -12 71 93 -54 0
-162 -44 0
-162 -95 0
-162 -87 0
-162 -94 0
-162 43 0
-162 1 0
-162 -72 0
-162 45 0
-162 -75 0
-162 -60 0
162 44 95 87 94 -43 -1 72 -45 75 60 0
-163 -23 0
-163 32 0
-163 99 0
-163 81 0
-163 29 0
-163 74 0
-163 15 0
-163 69 0
-163 -10 0
-163 -90 0
163 23 -32 -99 -81 -29 -74 -15 -69 10 90 0
-164 -76 0
-164 -53 0
-164 55 0
-164 59 0
-164 1 0
-164 12 0
-164 35 0
-164 -30 0
-164 42 0
-164 81 0
164 76 53 -55 -59 -1 -12 -35 30 -42 -81 0
-165 4 0
-165 42 0
-165 63 0
-165 -33 0
-165 -86 0
-165 51 0
-165 81 0
-165 -36 0
-165 -29 0
-165 -12 0
165 -4 -42 -63 33 86 -51 -81 36 29 12 0
-166 1 0
-166 73 0
-166 -85 0
-166 -25 0
-166 -16 0
-166 -37 0
-166 -4 0
-166 93 0
-166 -12 0
-166 40 0
166 -1 -73 85 25 16 37 4 -93 12 -40 0
-167 -40 0
-167 -44 0
-167 -69 0
-167 91 0
-167 100 0
-167 53 0
-167 43 0
-167 -98 0
-167 -83 0
-167 36 0
167 40 44 69 -91 -100 -53 -43 98 83 -36 0
-168 -86 0
-168 -38 0
-168 -77 0
-168 29 0
-168 -58 0
-168 -68 0
-168 23 0
-168 27 0
-168 -19 0
-168 -100 0
168 86 38 77 -29 58 68 -23 -27 19 100 0
-169 14 0
-169 -57 0
-169 -41 0
-169 34 0
-169 36 0
-169 -44 0
-169 -88 0
-169 -8 0
-169 89 0
-169 38 0
169 -14 57 41 -34 -36 44 88 8 -89 -38 0
-170 -76 0
-170 34 0
-170 71 0
-170 56 0
-170 70 0
-170 -92 0
-170 -35 0
-170 29 0
-170 93 0
-170 43 0
170 76 -34 -71 -56 -70 92 35 -29 -93 -43 0
161 162 163 164 165 166 167 168 169 170 0
-171 3 0
-171 66 0
-171 47 0
-171 -42 0
-171 60 0
-171 -28 0
-171 -80 0
-171 98 0
-171 -99 0
-171 11 0
171 -3 -66 -47 42 -60 28 80 -98 99 -11 0
-172 -99 0
-172 79 0
-172 -20 0
-172 -28 0
-172 24 0
-172 -93 0
-172 -92 0
-172 49 0
-172 -10 0
-172 9 0
172 99 -79 20 28 -24 93 92 -49 10 -9 0
-173 -15 0
-173 80 0
-173 51 0
-173 60 0
-173 85 0
-173 93 0
-173 -13 0
-173 -6 0
-173 -40 0
-173 12 0
173 15 -80 -51 -60 -85 -93 13 6 40 -12 0
-174 22 0
-174 47 0
-174 19 0
-174 -56 0
-174 24 0
-174 81 0
-174 7 0
-174 -25 0
-174 50 0
-174 -31 0
174 -22 -47 -19 56 -24 -81 -7 25 -50 31 0
-175 12 0
-175 98 0
-175 -69 0
-175 32 0
-175 -91 0
-175 -43 0
-175 -19 0
-175 -61 0
-175 50 0
-175 -24 0
175 -12 -98 69 -32 91 43 19 61 -50 24 0
-176 39 0
-176 -34 0
-176 78 0
-176 -27 0
-176 -1 0
-176 -37 0
-176 -84 0
-176 26 0
-176 46 0
-176 -41 0
176 -39 34 -78 27 1 37 84 -26 -46 41 0
-177 84 0
-177 -98 0
-177 6 0
-177 56 0
-177 -81 0
-177 68 0
-177 45 0
-177 -4 0
-177 -22 0
-177 75 0
177 -84 98 -6 -56 81 -68 -45 4 22 -75 0
-178 -46 0
-178 89 0
-178 -73 0
-178 -64 0
-178 54 0
-178 -69 0
-178 -48 0
-178 -12 0
-178 5 0
-178 -22 0
178 46 -89 73 64 -54 69 48 12 -5 22 0
-179 58 0
-179 -65 0
-179 50 0
-179 -91 0
-179 78 0
-179 -77 0
-179 23 0
-179 -55 0
-179 -96 0
-179 -85 0
179 -58 65 -50 91 -78 77 -23 55 96 85 0
-180 31 0
-180 -40 0
-180 49 0
-180 -46 0
-180 26 0
-180 5 0
-180 -47 0
-180 95 0
-180 -80 0
-180 -87 0
180 -31 40 -49 46 -26 -5 47 -95 80 87 0
171 172 173 174 175 176 177 178 179 180 0
-181 -10 0
-181 -3 0
-181 -41 0
-181 -49 0
-181 -30 0
-181 -18 0
-181 27 0
-181 -33 0
-181 -54 0
-181 73 0
181 10 3 41 49 30 18 -27 33 54 -73 0
-182 53 0
-182 83 0
-182 -57 0
-182 -7 0
-182 77 0
-182 -67 0
-182 95 0
-182 -60 0
-182 97 0
-182 -2 0
182 -53 -83 57 7 -77 67 -95 60 -97 2 0
-183 -66 0
-183 67 0
-183 28 0
-183 -80 0
-183 77 0
-183 3 0
-183 46 0
-183 -74 0
-183 60 0
-183 29 0
183 66 -67 -28 80 -77 -3 -46 74 -60 -29 0
-184 19 0
-184 64 0
-184 -66 0
-184 -36 0
-184 -76 0
-184 28 0
-184 -37 0
-184 -4 0
-184 100 0
-184 20 0
184 -19 -64 66 36 76 -28 37 4 -100 -20 0
-185 -13 0
-185 59 0
-185 56 0
-185 -75 0
-185 -100 0
-185 -46 0
-185 -39 0
-185 -52 0
-185 -87 0
-185 -76 0
185 13 -59 -56 75 100 46 39 52 87 76 0
-186 6 0
-186 85 0
-186 11 0
-186 97 0
-186 40 0
-186 -45 0
-186 41 0
-186 -16 0
-186 -91 0
-186 -22 0
186 -6 -85 -11 -97 -40 45 -41 16 91 22 0
-187 6 0
-187 18 0
-187 -40 0
-187 -39 0
-187 67 0
-187 -68 0
-187 43 0
-187 -63 0
-187 -89 0
-187 -15 0
187 -6 -18 40 39 -67 68 -43 63 89 15 0
-188 -44 0
-188 43 0
-188 -81 0
-188 55 0
-188 34 0
-188 19 0
-188 -13 0
-188 47 0
-188 48 0
-188 -73 0
188 44 -43 81 -55 -34 -19 13 -47 -48 73 0
-189 93 0
-189 75 0
-189 -62 0
-189 96 0
-189 -66 0
-189 -82 0
-189 76 0
-189 34 0
-189 -18 0
-189 -71 0
189 -93 -75 62 -96 66 82 -76 -34 18 71 0
-190 75 0
-190 -86 0
-190 45 0
-190 -48 0
-190 -89 0
-190 -10 0
-190 -17 0
-190 -77 0
-190 -88 0
-190 -70 0
190 -75 86 -45 48 89 10 17 77 88 70 0
181 182 183 184 185 186 187 188 189 190 0
-191 -50 0
-191 -21 0
-191 -18 0
-191 -12 0
-191 77 0
-191 -35 0
-191 -8 0
-191 -80 0
-191 91 0
-191 62 0
191 50 21 18 12 -77 35 8 80 -91 -62 0
-192 -24 0
-192 -48 0
-192 21 0
-192 4 0
-192 81 0
-192 41 0
-192 72 0
-192 51 0
-192 -12 0
-192 22 0
192 24 48 -21 -4 -81 -41 -72 -51 12 -22 0
-193 -93 0
-193 9 0
-193 82 0
-193 56 0
-193 -2 0
-193 -95 0
-193 -60 0
-193 -73 0
-193 -50 0
-193 -62 0
193 93 -9 -82 -56 2 95 60 73 50 62 0
-194 46 0
-194 -16 0
-194 32 0
-194 80 0
-194 -100 0
-194 15 0
-194 68 0
-194 -83 0
-194 54 0
-194 61 0
194 -46 16 -32 -80 100 -15 -68 83 -54 -61 0
-195 80 0
-195 28 0
-195 69 0
-195 59 0
-195 -99 0
-195 -21 0
-195 -95 0
-195 -38 0
-195 25 0
-195 7 0
195 -80 -28 -69 -59 99 21 95 38 -25 -7 0
-196 -50 0
-196 -99 0
-196 97 0
-196 76 0
-196 13 0
-196 -61 0
-196 -93 0
-196 38 0
-196 -85 0
-196 -10 0
196 50 99 -97 -76 -13 61 93 -38 85 10 0
-197 -41 0
-197 -2 0
-197 -28 0
-197 -42 0
-197 23 0
-197 -61 0
-197 86 0
-197 -34 0
-197 16 0
-197 -93 0
197 41 2 28 42 -23 61 -86 34 -16 93 0
-198 26 0
-198 -5 0
-198 -89 0
-198 -84 0
-198 -53 0
-198 10 0
-198 -95 0
-198 24 0
-198 -23 0
-198 64 0
198 -26 5 89 84 53 -10 95 -24 23 -64 0
-199 83 0
-199 -17 0
-199 71 0
-199 8 0
-199 85 0
-199 86 0
-199 67 0
-199 26 0
-199 -77 0
-199 43 0
199 -83 17 -71 -8 -85 -86 -67 -26 77 -43 0
-200 49 0
-200 -3 0
-200 85 0
-200 -72 0
-200 -30 0
-200 -56 0
-200 -60 0
-200 -96 0
-200 39 0
-200 53 0
200 -49 3 -85 72 30 56 60 96 -39 -53 0
191 192 193 194 195 196 197 198 199 200 0
